IN_D_cylinders=1; 
IN_G_cylinders=1; 
IN_General_EV=[0,0]; 
IN_Handle=1; 
IN_Hin=[1,1,1,1,1]; 
IN_Hout=[0,0,0,0,0]; 
IN_anomaly=[0,0]; 
IN_close_EV=[0,0]; 
IN_extend_EV=[0,0]; 

IN_open_EV=[0,0]; 
IN_retract_EV=[0,0];